MARKOV
222
 2 2 2 2 2 2 2 2 2 2 2 2 2 2 2 2 2 2 2 2 2 2 2 2 2 2 2 2 2 2 2 2 2 2 2 2 2 2 2 2 2 2 2 2 2 2 2 2 2 2 2 2 2 2 2 2 2 2 2 2 2 2 2 2 2 2 2 2 2 2 2 2 2 2 2 2 2 2 2 2 2 2 2 2 2 2 2 2 2 2 2 2 2 2 2 2 2 2 2 2 2 2 2 2 2 2 2 2 2 2 2 2 2 2 2 2 2 2 2 2 2 2 2 2 2 2 2 2 2 2 2 2 2 2 2 2 2 2 2 2 2 2 2 2 2 2 2 2 2 2 2 2 2 2 2 2 2 2 2 2 2 2 2 2 2 2 2 2 2 2 2 2 2 2 2 2 2 2 2 2 2 2 2 2 2 2 2 2 2 2 2 2 2 2 2 2 2 2 2 2 2 2 2 2 2 2 2 2 2 2 2 2 2 2 2 2 2 2 2 2 2 2
823
1	0 
1	1 
1	2 
1	3 
1	4 
1	5 
1	6 
1	7 
1	8 
1	9 
1	10 
1	11 
1	12 
1	13 
1	14 
1	15 
1	16 
1	17 
1	18 
1	19 
1	20 
1	21 
1	22 
1	23 
1	24 
1	25 
1	26 
1	27 
1	28 
1	29 
1	30 
1	31 
1	32 
1	33 
1	34 
1	35 
1	36 
1	37 
1	38 
1	39 
1	40 
1	41 
1	42 
1	43 
1	44 
1	45 
1	46 
1	47 
1	48 
1	49 
1	50 
1	51 
1	52 
1	53 
1	54 
1	55 
1	56 
1	57 
1	58 
1	59 
1	60 
1	61 
1	62 
1	63 
1	64 
1	65 
1	66 
1	67 
1	68 
1	69 
1	70 
1	71 
1	72 
1	73 
1	74 
1	75 
1	76 
1	77 
1	78 
1	79 
1	80 
1	81 
1	82 
1	83 
1	84 
1	85 
1	86 
1	87 
1	88 
1	89 
1	90 
1	91 
1	92 
1	93 
1	94 
1	95 
1	96 
1	97 
1	98 
1	99 
1	100 
1	101 
1	102 
1	103 
1	104 
1	105 
1	106 
1	107 
1	108 
1	109 
1	110 
1	111 
1	112 
1	113 
1	114 
1	115 
1	116 
1	117 
1	118 
1	119 
1	120 
1	121 
1	122 
1	123 
1	124 
1	125 
1	126 
1	127 
1	128 
1	129 
1	130 
1	131 
1	132 
1	133 
1	134 
1	135 
1	136 
1	137 
1	138 
1	139 
1	140 
1	141 
1	142 
1	143 
1	144 
1	145 
1	146 
1	147 
1	148 
1	149 
1	150 
1	151 
1	152 
1	153 
1	154 
1	155 
1	156 
1	157 
1	158 
1	159 
1	160 
1	161 
1	162 
1	163 
1	164 
1	165 
1	166 
1	167 
1	168 
1	169 
1	170 
1	171 
1	172 
1	173 
1	174 
1	175 
1	176 
1	177 
1	178 
1	179 
1	180 
1	181 
1	182 
1	183 
1	184 
1	185 
1	186 
1	187 
1	188 
1	189 
1	190 
1	191 
1	192 
1	193 
1	194 
1	195 
1	196 
1	197 
1	198 
1	199 
1	200 
1	201 
1	202 
1	203 
1	204 
1	205 
1	206 
1	207 
1	208 
1	209 
1	210 
1	211 
1	212 
1	213 
1	214 
1	215 
1	216 
1	217 
1	218 
1	219 
1	220 
1	221 
2	1 2 
2	1 150 
2	1 151 
2	1 160 
2	1 182 
2	1 184 
2	2 67 
2	2 151 
2	2 158 
2	2 159 
2	2 160 
2	3 4 
2	3 5 
2	3 11 
2	3 114 
2	3 206 
2	3 209 
2	4 5 
2	4 6 
2	4 175 
2	4 208 
2	4 209 
2	5 6 
2	5 10 
2	6 173 
2	6 175 
2	7 8 
2	7 9 
2	7 10 
2	7 11 
2	7 13 
2	8 9 
2	8 13 
2	8 14 
2	8 43 
2	8 113 
2	8 116 
2	9 11 
2	9 113 
2	9 114 
2	10 11 
2	10 13 
2	11 114 
2	12 15 
2	12 46 
2	12 55 
2	12 101 
2	13 14 
2	14 15 
2	14 43 
2	15 43 
2	15 46 
2	16 18 
2	16 77 
2	16 79 
2	17 18 
2	17 19 
2	17 78 
2	17 80 
2	18 79 
2	18 80 
2	19 156 
2	19 157 
2	19 166 
2	20 23 
2	20 31 
2	21 22 
2	21 24 
2	21 60 
2	21 197 
2	22 60 
2	22 172 
2	22 195 
2	22 197 
2	23 24 
2	23 31 
2	23 32 
2	24 32 
2	24 197 
2	25 27 
2	25 28 
2	25 65 
2	25 68 
2	25 150 
2	25 184 
2	25 186 
2	26 29 
2	26 36 
2	26 38 
2	26 39 
2	26 87 
2	26 88 
2	26 89 
2	27 28 
2	27 29 
2	27 68 
2	27 84 
2	27 89 
2	28 29 
2	28 183 
2	28 186 
2	29 36 
2	29 89 
2	29 183 
2	30 31 
2	30 32 
2	30 41 
2	30 42 
2	31 32 
2	32 33 
2	32 41 
2	32 197 
2	33 41 
2	33 196 
2	33 197 
2	33 201 
2	34 35 
2	34 44 
2	34 48 
2	34 49 
2	34 58 
2	34 92 
2	35 48 
2	35 53 
2	35 58 
2	35 100 
2	36 37 
2	36 38 
2	36 183 
2	37 38 
2	37 82 
2	37 127 
2	37 183 
2	37 204 
2	38 39 
2	38 127 
2	39 88 
2	39 125 
2	39 126 
2	39 127 
2	39 219 
2	40 41 
2	40 42 
2	40 201 
2	40 220 
2	40 221 
2	41 42 
2	41 201 
2	42 220 
2	43 46 
2	43 47 
2	43 115 
2	43 116 
2	44 45 
2	44 56 
2	44 58 
2	44 92 
2	44 93 
2	45 46 
2	45 47 
2	45 55 
2	45 56 
2	45 93 
2	46 47 
2	46 55 
2	47 93 
2	47 115 
2	48 49 
2	48 50 
2	49 50 
2	49 51 
2	49 52 
2	49 92 
2	50 52 
2	50 138 
2	50 143 
2	51 52 
2	51 92 
2	51 168 
2	51 170 
2	52 141 
2	52 143 
2	52 170 
2	53 56 
2	53 57 
2	53 58 
2	53 100 
2	54 55 
2	54 56 
2	54 57 
2	54 99 
2	54 101 
2	55 56 
2	55 101 
2	56 57 
2	56 58 
2	57 99 
2	57 100 
2	59 60 
2	59 172 
2	59 174 
2	59 176 
2	60 172 
2	61 63 
2	61 64 
2	61 103 
2	61 104 
2	61 144 
2	61 148 
2	62 63 
2	62 106 
2	62 149 
2	63 104 
2	63 106 
2	63 144 
2	63 149 
2	64 102 
2	64 103 
2	64 129 
2	64 147 
2	64 148 
2	65 66 
2	65 68 
2	65 86 
2	65 150 
2	65 151 
2	65 205 
2	66 67 
2	66 107 
2	66 151 
2	66 205 
2	66 209 
2	67 90 
2	67 107 
2	67 151 
2	67 159 
2	68 85 
2	68 86 
2	69 71 
2	69 72 
2	69 74 
2	69 169 
2	69 171 
2	70 73 
2	70 98 
2	70 159 
2	70 161 
2	70 162 
2	70 194 
2	71 72 
2	71 73 
2	71 74 
2	71 139 
2	71 191 
2	71 193 
2	72 73 
2	72 111 
2	72 161 
2	72 169 
2	73 161 
2	73 193 
2	73 194 
2	74 139 
2	74 140 
2	74 168 
2	74 170 
2	74 171 
2	75 76 
2	75 79 
2	75 80 
2	75 133 
2	75 213 
2	76 77 
2	76 79 
2	76 133 
2	76 134 
2	77 79 
2	78 80 
2	78 156 
2	78 214 
2	78 215 
2	79 80 
2	80 213 
2	80 215 
2	81 82 
2	81 83 
2	81 178 
2	81 181 
2	81 183 
2	81 185 
2	82 83 
2	82 183 
2	82 204 
2	83 102 
2	83 122 
2	83 181 
2	83 204 
2	84 85 
2	84 89 
2	84 199 
2	84 200 
2	85 86 
2	85 198 
2	86 177 
2	86 198 
2	86 205 
2	86 208 
2	87 88 
2	87 89 
2	87 201 
2	87 221 
2	88 218 
2	88 219 
2	88 221 
2	89 199 
2	89 201 
2	90 91 
2	90 107 
2	90 159 
2	91 107 
2	91 108 
2	91 111 
2	91 159 
2	91 161 
2	92 93 
2	92 94 
2	93 94 
2	93 115 
2	94 110 
2	94 115 
2	94 168 
2	94 171 
2	95 96 
2	95 98 
2	95 158 
2	95 160 
2	95 162 
2	95 180 
2	96 97 
2	96 98 
2	96 119 
2	96 120 
2	96 180 
2	97 98 
2	97 119 
2	97 187 
2	97 190 
2	97 194 
2	98 162 
2	98 194 
2	99 100 
2	99 101 
2	102 103 
2	102 122 
2	102 129 
2	102 204 
2	102 212 
2	103 104 
2	103 105 
2	103 202 
2	103 204 
2	104 105 
2	104 106 
2	104 203 
2	105 202 
2	105 203 
2	106 203 
2	107 108 
2	107 206 
2	107 207 
2	107 209 
2	108 109 
2	108 111 
2	108 112 
2	108 207 
2	109 110 
2	109 111 
2	109 112 
2	109 117 
2	109 169 
2	110 115 
2	110 117 
2	110 169 
2	110 171 
2	111 161 
2	111 169 
2	112 113 
2	112 114 
2	112 117 
2	112 207 
2	113 114 
2	113 116 
2	113 117 
2	114 206 
2	114 207 
2	115 116 
2	115 117 
2	116 117 
2	118 121 
2	118 122 
2	118 181 
2	118 210 
2	118 212 
2	119 120 
2	119 152 
2	119 187 
2	120 123 
2	120 152 
2	120 180 
2	120 211 
2	121 123 
2	121 179 
2	121 181 
2	121 210 
2	121 211 
2	122 212 
2	123 179 
2	123 180 
2	123 211 
2	124 125 
2	124 126 
2	124 203 
2	125 126 
2	125 219 
2	126 127 
2	126 202 
2	126 203 
2	127 202 
2	127 204 
2	128 131 
2	128 132 
2	128 164 
2	128 165 
2	128 210 
2	128 211 
2	129 131 
2	129 145 
2	129 147 
2	129 212 
2	130 132 
2	130 152 
2	130 155 
2	130 163 
2	130 211 
2	131 145 
2	131 165 
2	131 210 
2	131 212 
2	132 163 
2	132 164 
2	132 211 
2	133 134 
2	133 135 
2	133 136 
2	133 213 
2	134 135 
2	134 137 
2	135 136 
2	135 137 
2	135 142 
2	135 143 
2	136 140 
2	136 142 
2	136 213 
2	136 216 
2	137 138 
2	137 143 
2	138 143 
2	139 140 
2	139 191 
2	139 216 
2	140 141 
2	140 142 
2	140 216 
2	141 142 
2	141 143 
2	141 170 
2	142 143 
2	144 148 
2	144 149 
2	145 146 
2	145 147 
2	145 165 
2	146 147 
2	146 148 
2	147 148 
2	150 151 
2	150 184 
2	152 154 
2	152 155 
2	152 187 
2	152 211 
2	153 154 
2	153 155 
2	153 157 
2	153 166 
2	153 167 
2	153 188 
2	153 190 
2	154 155 
2	154 187 
2	155 163 
2	155 167 
2	156 157 
2	156 189 
2	156 214 
2	157 166 
2	157 188 
2	158 159 
2	158 160 
2	158 162 
2	159 161 
2	159 162 
2	160 180 
2	160 182 
2	163 164 
2	163 167 
2	164 165 
2	166 167 
2	168 170 
2	168 171 
2	169 171 
2	172 174 
2	172 177 
2	172 195 
2	172 198 
2	173 174 
2	173 175 
2	173 176 
2	174 175 
2	174 176 
2	174 177 
2	175 177 
2	175 208 
2	177 198 
2	177 208 
2	178 179 
2	178 181 
2	178 182 
2	178 184 
2	178 185 
2	179 180 
2	179 181 
2	179 182 
2	180 182 
2	182 184 
2	183 185 
2	183 186 
2	184 185 
2	184 186 
2	185 186 
2	187 190 
2	188 189 
2	188 190 
2	188 192 
2	189 191 
2	189 192 
2	189 214 
2	189 216 
2	190 192 
2	190 194 
2	191 192 
2	191 193 
2	191 216 
2	192 193 
2	192 194 
2	193 194 
2	195 196 
2	195 197 
2	195 198 
2	195 200 
2	196 197 
2	196 199 
2	196 200 
2	196 201 
2	198 200 
2	199 200 
2	199 201 
2	201 221 
2	202 203 
2	202 204 
2	205 208 
2	205 209 
2	206 207 
2	206 209 
2	208 209 
2	210 211 
2	210 212 
2	213 215 
2	213 216 
2	214 215 
2	214 216 
2	215 216 
2	217 218 
2	217 219 
2	217 220 
2	218 219 
2	218 220 
2	218 221 
2	220 221 
0	

2
 0.252912 1
2
 0.122787 1
2
 0.144204 1
2
 0.571178 1
2
 0.754119 1
2
 0.777409 1
2
 0.906294 1
2
 0.422941 1
2
 0.178167 1
2
 0.275041 1
2
 0.542669 1
2
 0.555293 1
2
 0.991036 1
2
 1 0.554161
2
 0.408346 1
2
 0.519363 1
2
 1 0.109963
2
 1 0.296012
2
 1 0.202868
2
 1 0.381896
2
 0.800022 1
2
 0.991819 1
2
 1 0.89523
2
 0.358608 1
2
 0.576986 1
2
 0.0205289 1
2
 0.0545223 1
2
 0.00862949 1
2
 0.0466071 1
2
 0.0118137 1
2
 0.312949 1
2
 0.416929 1
2
 0.168467 1
2
 0.310907 1
2
 0.0454923 1
2
 0.30947 1
2
 0.00871647 1
2
 0.189735 1
2
 0.0126981 1
2
 0.0217313 1
2
 0.199206 1
2
 0.186482 1
2
 0.370492 1
2
 0.962602 1
2
 0.582347 1
2
 0.835277 1
2
 1 0.613513
2
 1 0.285946
2
 1 0.232338
2
 0.985953 1
2
 1 0.162427
2
 0.0164496 1
2
 1 0.34708
2
 0.586284 1
2
 1 0.928099
2
 0.413716 1
2
 0.258425 1
2
 1 0.918144
2
 0.348156 1
2
 1 0.274731
2
 1 0.237978
2
 0.517863 1
2
 0.959616 1
2
 0.747502 1
2
 0.266574 1
2
 0.0170197 1
2
 0.0487249 1
2
 0.0127857 1
2
 0.0138386 1
2
 1 0.707823
2
 0.48795 1
2
 1 0.219763
2
 0.18163 1
2
 0.698432 1
2
 1 0.494149
2
 1 0.0823669
2
 1 0.092286
2
 1 0.16029
2
 1 0.259212
2
 1 0.345122
2
 1 0.318363
2
 1 0.803661
2
 0.630402 1
2
 1 0.517157
2
 0.723233 1
2
 0.421896 1
2
 0.597983 1
2
 0.293923 1
2
 0.0648388 1
2
 0.793269 1
2
 0.0285705 1
2
 0.0217778 1
2
 0.025578 1
2
 0.161737 1
2
 0.0313046 1
2
 0.125059 1
2
 0.585808 1
2
 0.791189 1
2
 0.162262 1
2
 1 0.785773
2
 0.747933 1
2
 0.55696 1
2
 1 0.814498
2
 1 0.291965
2
 1 0.243045
2
 1 0.400482
2
 1 0.272273
2
 0.0275088 1
2
 0.0634757 1
2
 0.0501011 1
2
 0.0247696 1
2
 0.0453004 1
2
 1 0.840093
2
 1 0.559435
2
 1 0.477
2
 1 0.788584
2
 1 0.44639
2
 1 0.433876
2
 1 0.334768
2
 1 0.556366
2
 1 0.636151
2
 1 0.573816
2
 1 0.450779
2
 1 0.620944
2
 1 0.29251
2
 0.570721 1
2
 1 0.42601
2
 1 0.87701
2
 1 0.389026
2
 1 0.244658
2
 0.38238 1
2
 1 0.316374
2
 0.42785 1
2
 1 0.274244
2
 1 0.10062
2
 1 0.21495
2
 1 0.359981
2
 1 0.194752
2
 0.84354 1
2
 0.472211 1
2
 0.841713 1
2
 0.347211 1
2
 1 0.331597
2
 0.52623 1
2
 1 0.450615
2
 1 0.298128
2
 1 0.135798
2
 1 0.579186
2
 1 0.894806
2
 1 0.614343
2
 0.0342222 1
2
 0.0201208 1
2
 0.675945 1
2
 0.317072 1
2
 1 0.571967
2
 0.458897 1
2
 1 0.850911
2
 0.484693 1
2
 0.233778 1
2
 0.193494 1
2
 0.0840084 1
2
 0.0723012 1
2
 0.225883 1
2
 1 0.605137
2
 1 0.419583
2
 1 0.216322
2
 1 0.36714
2
 1 0.318645
2
 0.109687 1
2
 0.0242396 1
2
 1 0.354432
2
 0.0212106 1
2
 1 0.920973
2
 1 0.74091
2
 1 0.727281
2
 0.269429 1
2
 1 0.376897
2
 0.253944 1
2
 0.696102 1
2
 0.333719 1
2
 0.843922 1
2
 1 0.541871
2
 0.245713 1
2
 0.0499571 1
2
 0.0763815 1
2
 0.262893 1
2
 0.00886822 1
2
 1 0.880063
2
 1 0.325007
2
 1 0.826443
2
 0.958499 1
2
 1 0.798711
2
 0.168733 1
2
 0.101183 1
2
 0.165789 1
2
 1 0.350048
2
 1 0.948775
2
 0.766657 1
2
 0.259881 1
2
 1 0.583475
2
 0.651912 1
2
 0.977526 1
2
 1 0.924078
2
 1 0.563772
2
 1 0.76285
2
 1 0.403119
2
 1 0.489215
2
 1 0.225192
2
 0.423193 1
2
 1 0.725383
2
 1 0.724256
2
 1 0.94504
2
 1 0.537321
2
 1 0.18049
2
 1 0.396217
2
 1 0.39777
2
 1 0.345782
2
 0.701678 1
2
 0.0824681 1
2
 0.277721 1
2
 0.156412 1
2
 0.167987 1
4
 0.993267 0.30179 0.30179 1
4
 0.991706 0.302895 0.302895 1
4
 0.990594 0.300592 0.300592 1
4
 0.999365 0.307065 0.307065 1
4
 1 0.310726 0.310726 0.997494
4
 0.997234 0.308298 0.308298 1
4
 0.984384 0.292568 0.292568 1
4
 0.986708 0.29586 0.29586 1
4
 0.99232 0.298417 0.298417 1
4
 0.987873 0.293333 0.293333 1
4
 0.995445 0.30223 0.30223 1
4
 0.94921 0.267964 0.267964 1
4
 0.943312 0.263116 0.263116 1
4
 0.946868 0.263855 0.263855 1
4
 0.951025 0.265953 0.265953 1
4
 0.954234 0.269403 0.269403 1
4
 0.955145 0.27154 0.27154 1
4
 0.943524 0.264486 0.264486 1
4
 0.94416 0.26641 0.26641 1
4
 0.950863 0.271854 0.271854 1
4
 0.955788 0.275345 0.275345 1
4
 0.955359 0.272954 0.272954 1
4
 0.938293 0.26159 0.26159 1
4
 0.936873 0.257896 0.257896 1
4
 0.940244 0.265685 0.265685 1
4
 0.945592 0.268877 0.268877 1
4
 0.936453 0.25143 0.25143 1
4
 0.940247 0.255264 0.255264 1
4
 0.936137 0.25452 0.25452 1
4
 0.940457 0.257021 0.257021 1
4
 0.933198 0.250891 0.250891 1
4
 0.940511 0.253734 0.253734 1
4
 0.933461 0.249387 0.249387 1
4
 0.93299 0.247107 0.247107 1
4
 0.937401 0.248521 0.248521 1
4
 0.942891 0.254389 0.254389 1
4
 0.940459 0.251511 0.251511 1
4
 0.944533 0.259376 0.259376 1
4
 0.94671 0.258268 0.258268 1
4
 0.948679 0.261438 0.261438 1
4
 0.940404 0.258621 0.258621 1
4
 0.933146 0.252452 0.252452 1
4
 0.948891 0.263238 0.263238 1
4
 0.926362 0.237251 0.237251 1
4
 0.929488 0.237937 0.237937 1
4
 0.927247 0.23518 0.23518 1
4
 0.923195 0.231774 0.231774 1
4
 0.929747 0.246577 0.246577 1
4
 0.928652 0.242154 0.242154 1
4
 0.933672 0.24572 0.24572 1
4
 0.933043 0.24354 0.24354 1
4
 0.93116 0.240699 0.240699 1
4
 1 0.287936 0.287936 0.969707
4
 1 0.283376 0.283376 0.97451
4
 1 0.285586 0.285586 0.973471
4
 1 0.29378 0.29378 0.967478
4
 1 0.299611 0.299611 0.965092
4
 1 0.295063 0.295063 0.971562
4
 1 0.293001 0.293001 0.972053
4
 1 0.288637 0.288637 0.972052
4
 1 0.29024 0.29024 0.972871
4
 1 0.300502 0.300502 0.968241
4
 1 0.30237 0.30237 0.967861
4
 1 0.305672 0.305672 0.962441
4
 0.950857 0.294995 0.294995 1
4
 0.954334 0.299517 0.299517 1
4
 0.949632 0.284649 0.284649 1
4
 0.949045 0.287 0.287 1
4
 0.946014 0.281365 0.281365 1
4
 0.952837 0.289305 0.289305 1
4
 0.948035 0.281645 0.281645 1
4
 0.952677 0.283652 0.283652 1
4
 0.955195 0.287511 0.287511 1
4
 0.954872 0.289592 0.289592 1
4
 0.950591 0.291381 0.291381 1
4
 0.954173 0.297608 0.297608 1
4
 0.95589 0.297074 0.297074 1
4
 0.955783 0.295317 0.295317 1
4
 0.954282 0.291984 0.291984 1
4
 0.985654 0.304214 0.304214 1
4
 0.989147 0.306539 0.306539 1
4
 0.981512 0.297239 0.297239 1
4
 0.982725 0.300294 0.300294 1
4
 0.986319 0.300858 0.300858 1
4
 0.991817 0.306225 0.306225 1
4
 0.991649 0.307844 0.307844 1
4
 0.992316 0.316877 0.316877 1
4
 0.996448 0.320936 0.320936 1
4
 0.997455 0.323632 0.323632 1
4
 0.998912 0.326478 0.326478 1
4
 0.990534 0.317976 0.317976 1
4
 0.994267 0.322612 0.322612 1
4
 0.987314 0.313673 0.313673 1
4
 0.988424 0.308269 0.308269 1
4
 0.988091 0.309984 0.309984 1
4
 0.982008 0.301989 0.301989 1
4
 0.980795 0.303435 0.303435 1
4
 0.98311 0.306849 0.306849 1
4
 0.991593 0.312353 0.312353 1
4
 0.997456 0.316166 0.316166 1
4
 0.994437 0.311947 0.311947 1
4
 0.995385 0.318113 0.318113 1
4
 0.986261 0.310914 0.310914 1
4
 0.99712 0.317925 0.317925 1
4
 0.96111 0.304621 0.304621 1
4
 0.962839 0.304074 0.304074 1
4
 0.967934 0.307752 0.307752 1
4
 0.969784 0.311095 0.311095 1
4
 0.959385 0.301627 0.301627 1
4
 0.963002 0.300965 0.300965 1
4
 0.966197 0.304728 0.304728 1
4
 0.959601 0.297688 0.297688 1
4
 0.968098 0.304606 0.304606 1
4
 0.964518 0.298869 0.298869 1
4
 0.961489 0.297569 0.297569 1
4
 0.970875 0.304718 0.304718 1
4
 0.951351 0.244141 0.244141 1
4
 0.951885 0.247332 0.247332 1
4
 0.956977 0.247534 0.247534 1
4
 0.958105 0.249546 0.249546 1
4
 0.950069 0.245082 0.245082 1
4
 0.95617 0.249946 0.249946 1
4
 0.95483 0.245007 0.245007 1
4
 0.945015 0.239632 0.239632 1
4
 0.947938 0.24258 0.24258 1
4
 0.940516 0.23618 0.23618 1
4
 1 0.324462 0.324462 0.996826
4
 1 0.32472 0.32472 0.99946
4
 1 0.321588 0.321588 0.99873
4
 1 0.326858 0.326858 0.995819
4
 1 0.327107 0.327107 0.989575
4
 1 0.330126 0.330126 0.989687
4
 1 0.323705 0.323705 0.995092
4
 1 0.329852 0.329852 0.986857
4
 1 0.329512 0.329512 0.996995
4
 1 0.330389 0.330389 0.992303
4
 0.999809 0.329464 0.329464 1
4
 1 0.336417 0.336417 0.990523
4
 1 0.335106 0.335106 0.989466
4
 1 0.332807 0.332807 0.990856
4
 1 0.334261 0.334261 0.995038
4
 0.974753 0.310771 0.310771 1
4
 0.976615 0.314146 0.314146 1
4
 0.977548 0.310885 0.310885 1
4
 0.982059 0.318155 0.318155 1
4
 0.982004 0.315893 0.315893 1
4
 0.973166 0.311764 0.311764 1
4
 0.974096 0.308527 0.308527 1
4
 0.980461 0.319172 0.319172 1
4
 0.936192 0.244243 0.244243 1
4
 0.939985 0.247142 0.247142 1
4
 0.944482 0.250753 0.250753 1
4
 0.941146 0.250099 0.250099 1
4
 0.945651 0.245842 0.245842 1
4
 0.943954 0.243426 0.243426 1
4
 0.94847 0.245751 0.245751 1
4
 0.95456 0.250628 0.250628 1
4
 0.950442 0.249598 0.249598 1
4
 0.937666 0.242542 0.242542 1
4
 0.941465 0.245421 0.245421 1
4
 0.935405 0.239732 0.239732 1
4
 0.939353 0.241301 0.241301 1
4
 0.94581 0.247419 0.247419 1
4
 0.938087 0.244259 0.244259 1
4
 0.93205 0.238597 0.238597 1
4
 0.946234 0.249171 0.249171 1
4
 0.946393 0.250769 0.250769 1
4
 0.961609 0.250431 0.250431 1
4
 0.965017 0.251505 0.251505 1
4
 0.966155 0.25355 0.25355 1
4
 0.96442 0.255279 0.255279 1
4
 0.968164 0.256662 0.256662 1
4
 0.960799 0.252872 0.252872 1
4
 0.971596 0.257762 0.257762 1
4
 0.974875 0.257646 0.257646 1
4
 0.97597 0.25962 0.25962 1
4
 0.969851 0.25952 0.25952 1
4
 0.962472 0.255689 0.255689 1
4
 0.968109 0.260855 0.260855 1
4
 0.971922 0.26239 0.26239 1
4
 0.979098 0.265261 0.265261 1
4
 0.977999 0.262807 0.262807 1
4
 0.975695 0.263811 0.263811 1
4
 0.939249 0.23828 0.23828 1
4
 0.936773 0.235474 0.235474 1
4
 0.943742 0.240555 0.240555 1
4
 0.936353 0.234209 0.234209 1
4
 0.92855 0.233605 0.233605 1
4
 0.932469 0.235134 0.235134 1
4
 0.930012 0.232365 0.232365 1
4
 0.92413 0.228329 0.228329 1
4
 0.924493 0.230222 0.230222 1
4
 0.933726 0.237376 0.237376 1
4
 0.925739 0.232418 0.232418 1
4
 0.935196 0.236116 0.236116 1
4
 0.942153 0.241212 0.241212 1
4
 0.926832 0.229283 0.229283 1
4
 0.932313 0.232082 0.232082 1
4
 0.943839 0.276513 0.276513 1
4
 0.948461 0.278484 0.278484 1
4
 0.946121 0.275129 0.275129 1
4
 0.942092 0.272304 0.272304 1
4
 0.949047 0.280379 0.280379 1
4
 1 0.35157 0.35157 0.953039
4
 1 0.347154 0.347154 0.954913
4
 1 0.345786 0.345786 0.959159
4
 1 0.348767 0.348767 0.958029
4
 1 0.353359 0.353359 0.948022
4
 1 0.350625 0.350625 0.949033
4
 1 0.356053 0.356053 0.951382
4
 1 0.35569 0.35569 0.955666
4
 1 0.360508 0.360508 0.945418
4
 1 0.350648 0.350648 0.95776
4
 1 0.353105 0.353105 0.957062
4
 1 0.355265 0.355265 0.947756
4
 1 0.357888 0.357888 0.946799
4
 1 0.340523 0.340523 0.962503
4
 1 0.343285 0.343285 0.960775
4
 1 0.342116 0.342116 0.95749
4
 1 0.344239 0.344239 0.954269
4
 1 0.348089 0.348089 0.950633
4
 0.97536 0.289304 0.289304 1
4
 0.977882 0.295064 0.295064 1
4
 0.972406 0.290242 0.290242 1
4
 0.981458 0.295618 0.295618 1
4
 0.980356 0.293371 0.293371 1
4
 0.972025 0.287856 0.287856 1
4
 0.976731 0.287367 0.287367 1
4
 0.971316 0.28233 0.28233 1
4
 0.979037 0.2906 0.2906 1
4
 0.970716 0.285137 0.285137 1
4
 0.967669 0.28154 0.28154 1
4
 0.978049 0.285786 0.285786 1
4
 0.973993 0.283114 0.283114 1
4
 0.981734 0.291407 0.291407 1
4
 0.982893 0.288918 0.288918 1
4
 0.975632 0.29633 0.29633 1
4
 0.973608 0.293226 0.293226 1
4
 0.984609 0.277884 0.277884 1
4
 0.981628 0.276933 0.276933 1
4
 0.981628 0.27372 0.27372 1
4
 0.977009 0.273071 0.273071 1
4
 0.9752 0.270262 0.270262 1
4
 0.992601 0.290269 0.290269 1
4
 0.999423 0.297629 0.297629 1
4
 0.990262 0.291378 0.291378 1
4
 0.98793 0.287656 0.287656 1
4
 0.995111 0.295418 0.295418 1
4
 0.999536 0.295925 0.295925 1
4
 0.985936 0.280534 0.280534 1
4
 0.989986 0.284469 0.284469 1
4
 0.985937 0.277279 0.277279 1
4
 0.991544 0.281547 0.281547 1
4
 0.994555 0.28488 0.28488 1
4
 0.993383 0.2859 0.2859 1
4
 0.986988 0.283495 0.283495 1
4
 0.977831 0.276822 0.276822 1
4
 0.982344 0.280944 0.280944 1
4
 0.978326 0.275675 0.275675 1
4
 0.986378 0.284885 0.284885 1
4
 0.994442 0.288918 0.288918 1
4
 0.997966 0.293074 0.293074 1
4
 0.988543 0.277328 0.277328 1
4
 0.987822 0.275198 0.275198 1
4
 0.976516 0.268328 0.268328 1
4
 0.980362 0.269907 0.269907 1
4
 0.976516 0.269674 0.269674 1
4
 1 0.281317 0.281317 0.984465
4
 1 0.285009 0.285009 0.979558
4
 1 0.286592 0.286592 0.980384
4
 1 0.281569 0.281569 0.987733
4
 1 0.283648 0.283648 0.986735
4
 1 0.280387 0.280387 0.98176
4
 1 0.282573 0.282573 0.980713
4
 1 0.279162 0.279162 0.988897
4
 1 0.276907 0.276907 0.990453
4
 1 0.284066 0.284066 0.976866
4
 1 0.291508 0.291508 0.976978
4
 1 0.295941 0.295941 0.974732
4
 1 0.292551 0.292551 0.981432
4
 1 0.290853 0.290853 0.981542
4
 1 0.287871 0.287871 0.976648
4
 1 0.286497 0.286497 0.983803
4
 1 0.288821 0.288821 0.982038
4
 1 0.325338 0.325338 0.986689
4
 1 0.325958 0.325958 0.982598
4
 1 0.320596 0.320596 0.988907
4
 1 0.323162 0.323162 0.983536
4
 1 0.321955 0.321955 0.99219
4
 1 0.320327 0.320327 0.991744
4
 1 0.328242 0.328242 0.981881
4
 1 0.32421 0.32421 0.991466
4
 1 0.330367 0.330367 0.983261
4
 1 0.332638 0.332638 0.973154
4
 1 0.330832 0.330832 0.97299
4
 1 0.326046 0.326046 0.978743
4
 1 0.330997 0.330997 0.979184
4
 0.974427 0.297749 0.297749 1
4
 0.978978 0.304346 0.304346 1
4
 0.974536 0.301525 0.301525 1
4
 0.971749 0.297917 0.297917 1
4
 0.970169 0.291487 0.291487 1
4
 0.96734 0.29173 0.29173 1
4
 0.962897 0.285064 0.285064 1
4
 0.965333 0.288674 0.288674 1
4
 0.967776 0.286062 0.286062 1
4
 0.965171 0.284927 0.284927 1
4
 0.991424 0.320885 0.320885 1
4
 0.98449 0.311993 0.311993 1
4
 0.982281 0.312433 0.312433 1
4
 0.986758 0.317467 0.317467 1
4
 0.994434 0.32631 0.32631 1
4
 1 0.331846 0.331846 0.999686
4
 0.990477 0.322096 0.322096 1
4
 0.976836 0.304918 0.304918 1
4
 0.979087 0.308205 0.308205 1
4
 0.9758 0.281327 0.281327 1
4
 0.972627 0.280778 0.280778 1
4
 0.981515 0.286534 0.286534 1
4
 0.971754 0.278697 0.278697 1
4
 0.970827 0.276042 0.276042 1
4
 0.97383 0.276658 0.276658 1
4
 0.980634 0.28441 0.28441 1
4
 0.978324 0.280777 0.280777 1
4
 0.954721 0.252237 0.252237 1
4
 0.959073 0.255447 0.255447 1
4
 0.954935 0.254397 0.254397 1
4
 0.950761 0.252812 0.252812 1
4
 0.961228 0.260676 0.260676 1
4
 0.955095 0.256029 0.256029 1
4
 0.96469 0.260609 0.260609 1
4
 0.964689 0.261916 0.261916 1
4
 1 0.306533 0.306533 0.990015
4
 1 0.303172 0.303172 0.994472
4
 1 0.303378 0.303378 0.999175
4
 1 0.306289 0.306289 0.996038
4
 1 0.302225 0.302225 0.998782
4
 1 0.308614 0.308614 0.990683
4
 1 0.305499 0.305499 0.986851
4
 1 0.304152 0.304152 0.990849
4
 1 0.308876 0.308876 0.982208
4
 1 0.310796 0.310796 0.981822
4
 1 0.309612 0.309612 0.987074
4
 1 0.30215 0.30215 0.991294
4
 1 0.306843 0.306843 0.982649
4
 1 0.304948 0.304948 0.983035
4
 1 0.302266 0.302266 0.985355
4
 1 0.300387 0.300387 0.991182
4
 1 0.299877 0.299877 0.999623
4
 1 0.299062 0.299062 0.995198
4
 0.926416 0.228051 0.228051 1
4
 0.921332 0.227169 0.227169 1
4
 1 0.339181 0.339181 0.966782
4
 1 0.334626 0.334626 0.968357
4
 1 0.338027 0.338027 0.963476
4
 1 0.334792 0.334792 0.974522
4
 1 0.335318 0.335318 0.965425
4
 1 0.34488 0.34488 0.96391
4
 1 0.342323 0.342323 0.967109
4
 1 0.340501 0.340501 0.970481
4
 1 0.337508 0.337508 0.972772
4
 1 0.345274 0.345274 0.965969
4
 1 0.35029 0.35029 0.962073
4
 1 0.347192 0.347192 0.966784
4
 1 0.34089 0.34089 0.972555
4
 1 0.344617 0.344617 0.969992
4
 1 0.349624 0.349624 0.966079
4
 0.96767 0.275503 0.275503 1
4
 0.964036 0.27519 0.27519 1
4
 0.964415 0.273795 0.273795 1
4
 0.964956 0.277374 0.277374 1
4
 0.96588 0.270406 0.270406 1
4
 0.969738 0.273488 0.273488 1
4
 0.961982 0.268574 0.268574 1
4
 0.963496 0.271187 0.271187 1
4
 0.964092 0.265845 0.265845 1
4
 0.968868 0.271009 0.271009 1
4
 0.961119 0.26614 0.26614 1
4
 0.959933 0.263871 0.263871 1
4
 0.969358 0.269886 0.269886 1
4
 0.957027 0.259051 0.259051 1
4
 0.959017 0.261794 0.261794 1
4
 0.968433 0.267761 0.267761 1
4
 0.966641 0.265007 0.265007 1
4
 0.977227 0.278179 0.278179 1
4
 0.97323 0.272962 0.272962 1
4
 0.953165 0.261622 0.261622 1
4
 0.955147 0.264834 0.264834 1
4
 0.95606 0.262084 0.262084 1
4
 0.958747 0.266909 0.266909 1
4
 0.951079 0.262114 0.262114 1
4
 0.946658 0.256005 0.256005 1
4
 0.951988 0.259392 0.259392 1
4
 0.956273 0.268773 0.268773 1
4
 0.956649 0.26741 0.26741 1
4
 0.947563 0.25377 0.25377 1
4
 0.952898 0.257128 0.257128 1
4
 0.949533 0.256457 0.256457 1
4
 1 0.325422 0.325422 0.971405
4
 1 0.33037 0.33037 0.969172
4
 1 0.32559 0.32559 0.974903
4
 1 0.328213 0.328213 0.96716
4
 1 0.331053 0.331053 0.966238
4
 1 0.312163 0.312163 0.977641
4
 1 0.312609 0.312609 0.973204
4
 1 0.308318 0.308318 0.978409
4
 1 0.316283 0.316283 0.976106
4
 1 0.314552 0.314552 0.972822
4
 1 0.312906 0.312906 0.982485
4
 1 0.317804 0.317804 0.971895
4
 1 0.320689 0.320689 0.973807
4
 1 0.32021 0.32021 0.977808
4
 1 0.323081 0.323081 0.976162
4
 1 0.325684 0.325684 0.96841
4
 1 0.322231 0.322231 0.969606
4
 1 0.333498 0.333498 0.965262
4
 1 0.318003 0.318003 0.978961
4
 1 0.315078 0.315078 0.981327
4
 1 0.32001 0.32001 0.97075
4
 1 0.34343 0.34343 0.980507
4
 1 0.342092 0.342092 0.979461
4
 1 0.346219 0.346219 0.973157
4
 1 0.339642 0.339642 0.984479
4
 1 0.338785 0.338785 0.990023
4
 1 0.335998 0.335998 0.98481
4
 1 0.338697 0.338697 0.97968
4
 1 0.342401 0.342401 0.977099
4
 1 0.336374 0.336374 0.981056
4
 1 0.333416 0.333416 0.983372
4
 1 0.331887 0.331887 0.957972
4
 1 0.326473 0.326473 0.959478
4
 1 0.329014 0.329014 0.955607
4
 1 0.332405 0.332405 0.954481
4
 1 0.328629 0.328629 0.96169
4
 1 0.325145 0.325145 0.962878
4
 1 0.337307 0.337307 0.957596
4
 1 0.340361 0.340361 0.953786
4
 1 0.341715 0.341715 0.955234
4
 1 0.336887 0.336887 0.960397
4
 1 0.321936 0.321936 0.960663
4
 1 0.317346 0.317346 0.964988
4
 1 0.316456 0.316456 0.96293
4
 1 0.32075 0.32075 0.958292
4
 1 0.320626 0.320626 0.964068
4
 1 0.338055 0.338055 0.952929
4
 1 0.335544 0.335544 0.95325
4
 1 0.331733 0.331733 0.960449
4
 1 0.334604 0.334604 0.959534
4
 1 0.322987 0.322987 0.957378
4
 1 0.326704 0.326704 0.955875
4
 1 0.322862 0.322862 0.963148
4
 1 0.277155 0.277155 0.99374
4
 1 0.27708 0.27708 0.997654
4
 1 0.279337 0.279337 0.996087
4
 1 0.281475 0.281475 0.991178
4
 1 0.274842 0.274842 0.999224
4
 0.998532 0.272248 0.272248 1
4
 0.998419 0.276568 0.276568 1
4
 0.994615 0.271107 0.271107 1
4
 0.993553 0.272786 0.272786 1
4
 0.9896 0.269262 0.269262 1
4
 0.996346 0.278271 0.278271 1
4
 0.995116 0.27544 0.27544 1
4
 1 0.2814 0.2814 0.995082
4
 1 0.282112 0.282112 0.99816
4
 0.986273 0.264488 0.264488 1
4
 0.987381 0.266514 0.266514 1
4
 0.981301 0.262688 0.262688 1
4
 0.99344 0.279434 0.279434 1
4
 0.997184 0.28493 0.28493 1
4
 0.998922 0.283813 0.283813 1
4
 0.988655 0.273452 0.273452 1
4
 0.99149 0.274466 0.274466 1
4
 0.998193 0.281633 0.281633 1
4
 0.987435 0.270669 0.270669 1
4
 0.983506 0.267173 0.267173 1
4
 0.981189 0.268195 0.268195 1
4
 0.986327 0.268164 0.268164 1
4
 1 0.35431 0.35431 0.943772
4
 1 0.35971 0.35971 0.941814
4
 1 0.344012 0.344012 0.947168
4
 1 0.342473 0.342473 0.950578
4
 1 0.338583 0.338583 0.949457
4
 1 0.345381 0.345381 0.948606
4
 1 0.349244 0.349244 0.944991
4
 1 0.347681 0.347681 0.948393
4
 0.985157 0.296943 0.296943 1
4
 0.991762 0.304555 0.304555 1
4
 1 0.31232 0.31232 0.969767
4
 1 0.314119 0.314119 0.966343
4
 1 0.310679 0.310679 0.973586
4
 1 0.318259 0.318259 0.967484
4
 1 0.308096 0.308096 0.970692
4
 1 0.309871 0.309871 0.967265
4
 1 0.304292 0.304292 0.971237
4
 1 0.307615 0.307615 0.965799
4
 1 0.310882 0.310882 0.963957
4
 1 0.302142 0.302142 0.97687
4
 1 0.303782 0.303782 0.976816
4
 1 0.311445 0.311445 0.9677
4
 1 0.308033 0.308033 0.974954
4
 1 0.317489 0.317489 0.959638
4
 1 0.314261 0.314261 0.960985
4
 1 0.300195 0.300195 0.9726
4
 1 0.295705 0.295705 0.980662
4
 1 0.294924 0.294924 0.979671
4
 1 0.30536 0.30536 0.966775
4
 1 0.299928 0.299928 0.977858
4
 0.990817 0.294695 0.294695 1
4
 0.998412 0.303633 0.303633 1
4
 0.995669 0.298781 0.298781 1
4
 0.984054 0.285974 0.285974 1
4
 0.991207 0.29369 0.29369 1
4
 1 0.309365 0.309365 0.993079
4
 1 0.310499 0.310499 0.995312
4
 1 0.325501 0.325501 0.953515
4
 1 0.318525 0.318525 0.956356
4
 1 0.332641 0.332641 0.950897
4
 1 0.311974 0.311974 0.959529
4
 0.973943 0.265168 0.265168 1
4
 0.970122 0.264939 0.264939 1
4
 0.97192 0.269035 0.269035 1
4
 0.951342 0.278975 0.278975 1
4
 0.955679 0.282055 0.282055 1
4
 0.956215 0.286219 0.286219 1
4
 0.958096 0.285627 0.285627 1
4
 0.945272 0.271728 0.271728 1
4
 0.94692 0.271114 0.271114 1
4
 0.941247 0.268937 0.268937 1
4
 0.950649 0.274992 0.274992 1
4
 0.944954 0.272784 0.272784 1
4
 0.953321 0.278658 0.278658 1
4
 0.954982 0.278029 0.278029 1
4
 0.957238 0.277895 0.277895 1
4
 0.960089 0.285302 0.285302 1
4
 0.959928 0.281599 0.281599 1
4
 1 0.317832 0.317832 0.986688
4
 1 0.320682 0.320682 0.985028
4
 1 0.316063 0.316063 0.991297
4
 1 0.314462 0.314462 0.996543
4
 1 0.31787 0.31787 0.993248
4
 1 0.314607 0.314607 0.985358
4
 1 0.320375 0.320375 0.981328
4
 1 0.31576 0.31576 0.987574
4
 1 0.312856 0.312856 0.989961
4
 1 0.312412 0.312412 0.997439
4
 1 0.319217 0.319217 0.996544
4
 0.99998 0.317512 0.317512 1
4
 1 0.314199 0.314199 0.999402
4
 0.997121 0.311627 0.311627 1
4
 1 0.315913 0.315913 0.99957
4
 1 0.30372 0.30372 0.981104
4
 1 0.295442 0.295442 0.985963
4
 1 0.299425 0.299425 0.983475
4
 1 0.295817 0.295817 0.988957
4
 1 0.290657 0.290657 0.994078
4
 1 0.293465 0.293465 0.991403
4
 1 0.292318 0.292318 0.987402
4
 1 0.289014 0.289014 0.992349
4
 1 0.297422 0.297422 0.988902
4
 1 0.299177 0.299177 0.989236
4
 1 0.291026 0.291026 0.997098
4
 0.999033 0.289335 0.289335 1
4
 1 0.286611 0.286611 0.998049
4
 1 0.292413 0.292413 0.998275
4
 1 0.295572 0.295572 0.99475
4
 1 0.294139 0.294139 0.998611
4
 0.961436 0.29349 0.29349 1
4
 0.958418 0.292213 0.292213 1
4
 0.960628 0.289513 0.289513 1
4
 0.962787 0.292499 0.292499 1
4
 0.961112 0.295615 0.295615 1
4
 0.968262 0.299488 0.299488 1
4
 0.965494 0.295904 0.295904 1
4
 0.970494 0.302717 0.302717 1
4
 0.964682 0.291894 0.291894 1
4
 0.969623 0.298476 0.298476 1
4
 0.974644 0.305348 0.305348 1
4
 0.981343 0.313613 0.313613 1
4
 1 0.342784 0.342784 0.973375
4
 1 0.336095 0.336095 0.97825
4
 0.964792 0.282584 0.282584 1
4
 0.96436 0.280131 0.280131 1
4
 0.959877 0.270879 0.270879 1
4
 0.960415 0.274419 0.274419 1
4
 0.961764 0.279019 0.279019 1
4
 1 0.324994 0.324994 0.965369
4
 1 0.33132 0.33132 0.963258
4
 1 0.285854 0.285854 0.988399
4
 1 0.284272 0.284272 0.99324
4
 1 0.289854 0.289854 0.986515
4
 1 0.28825 0.28825 0.991346
4
 1 0.286577 0.286577 0.991457
4
 0.995048 0.329628 0.329628 1
4
 1 0.335013 0.335013 0.999069
4
 0.991144 0.3277 0.3277 1
4
 0.999584 0.332712 0.332712 1
4
 0.989809 0.325146 0.325146 1
4
 0.989754 0.322835 0.322835 1
4
 0.985871 0.320947 0.320947 1
1
 1

